mixintcount/benchmarks/random_v2l/7_7_1122.in
28 9
#	x1	x2	x3	x4	x5	x6	x7;		0 = Real; 1 = Integer
	1	1	1	1	1	1	1
1	2	7	10	9	-5	-8	-5	770
1	8	-10	3	-1	9	1	-9	962
1	1	-1	-9	-9	-10	-7	-1	-887
1	3	-7	5	5	1	-9	10	91
1	7	9	9	-9	-10	-8	-6	525
1	-10	8	-5	9	-2	-6	10	-171
1	3	9	9	4	-9	-5	-7	281
1	-2	6	-5	10	8	-6	10	-61
1	-10	7	3	9	9	8	3	695
1	5	6	6	-8	-10	3	10	839
1	2	8	-8	1	-8	-4	-9	-1089
1	-9	-4	-5	7	-2	-5	0	-108
1	10	-9	-6	6	9	8	2	37
1	3	-3	1	1	-10	0	-8	567
1	1	0	0	0	0	0	0	1122
1	-1	0	0	0	0	0	0	1122
1	0	1	0	0	0	0	0	1122
1	0	-1	0	0	0	0	0	1122
1	0	0	1	0	0	0	0	1122
1	0	0	-1	0	0	0	0	1122
1	0	0	0	1	0	0	0	1122
1	0	0	0	-1	0	0	0	1122
1	0	0	0	0	1	0	0	1122
1	0	0	0	0	-1	0	0	1122
1	0	0	0	0	0	1	0	1122
1	0	0	0	0	0	-1	0	1122
1	0	0	0	0	0	0	1	1122
1	0	0	0	0	0	0	-1	1122
